language ESSENCE' 1.0

letting jobs = 102
letting horizon = 794
letting resourcesRenew = 2
letting resourcesNonrenew = 2
letting resourceLimits = [18, 19, 240, 312]
letting successors = [[2, 3, 4, 5, 6, 7, 8, 9, 10, 11, 12, 13, 14, 15, 17, 19, 22, 23], [53, 43, 41, 40, 39, 37, 36, 35, 32, 30, 29, 28, 24, 18], [53, 43, 41, 39, 38, 37, 35, 33, 32, 31, 30, 29, 25, 24], [54, 53, 46, 44, 43, 41, 40, 39, 37, 31, 29, 26, 25, 21], [54, 47, 46, 43, 41, 40, 39, 33, 29, 28, 24, 18], [55, 54, 53, 48, 46, 44, 43, 41, 40, 39, 37, 36, 33, 28, 20], [39, 36, 30, 25, 24, 16], [64, 48, 46, 43, 39, 37, 36, 35, 31, 26, 25], [53, 48, 41, 37, 32, 31, 30, 21, 20], [64, 54, 53, 47, 37, 32, 31, 27, 25], [58, 53, 42, 41, 36, 35, 34, 29, 24], [47, 44, 41, 40, 32, 28, 25, 24], [73, 64, 54, 40, 38, 32, 30, 29, 25], [73, 64, 55, 53, 48, 37, 35, 32, 25], [73, 71, 66, 61, 60, 58, 54, 52, 51, 50, 46, 43, 41, 39, 37, 30], [73, 64, 61, 58, 54, 52, 50, 48, 42, 41, 40, 37, 32], [73, 64, 62, 55, 53, 51, 50, 49, 46, 45, 44, 43, 42, 29], [73, 70, 59, 31, 25], [73, 66, 60, 55, 54, 47, 43, 37, 32], [73, 71, 64, 60, 50, 25], [75, 73, 69, 68, 66, 62, 61, 60, 57, 55, 51, 50, 49, 47, 42], [82, 71, 70, 66, 61, 58, 57, 41, 34], [69, 66, 64, 60, 57, 55, 51, 50, 49, 45, 44, 43], [86, 75, 73, 72, 71, 70, 69, 68, 66, 64, 63, 62, 59, 57, 56, 55, 51, 50], [82, 66, 61, 58, 57, 52, 34], [82, 77, 61, 57, 47, 34], [86, 73, 68, 66, 62, 61, 59, 57, 55, 50, 41], [82, 77, 76, 75, 68, 66, 65, 64, 62, 61, 60, 57, 51, 49], [86, 82, 76, 72, 69, 67, 66, 65, 63, 61, 60, 57, 56, 48], [75, 74, 69, 65, 62, 57, 55, 49, 45], [68, 62, 61, 60, 57, 55, 50, 42], [74, 71, 70, 63, 57, 56, 51, 49, 46], [87, 86, 77, 76, 75, 73, 71, 65, 62, 61, 45], [76, 75, 74, 69, 65, 62, 51, 49, 45], [87, 84, 77, 74, 67, 62, 60, 56, 54, 47], [81, 75, 73, 68, 67, 66, 65, 62, 60, 57, 56, 49], [82, 75, 74, 65, 62, 49, 45], [101, 86, 85, 80, 77, 75, 72, 70, 68, 66, 65, 51], [101, 87, 86, 81, 80, 75, 74, 72, 70, 69, 68, 62, 56], [100, 99, 87, 85, 84, 81, 80, 77, 76, 75, 72, 67, 66], [101, 87, 85, 84, 80, 79, 77, 75, 74, 72, 69, 67], [100, 87, 86, 85, 82, 81, 80, 72, 71, 67, 65], [101, 98, 86, 82, 80, 78, 76, 74, 70, 56], [101, 100, 99, 96, 85, 84, 83, 82, 81, 80, 79, 78, 77, 76, 75], [101, 98, 81, 80, 78, 68, 67, 63, 56], [86, 79, 78, 76, 69, 68, 67, 59], [101, 100, 86, 80, 79, 78, 76, 63, 59], [101, 100, 94, 87, 81, 80, 79, 78, 75, 68], [99, 98, 96, 95, 94, 91, 87, 86, 85, 84, 80, 72], [101, 99, 98, 97, 96, 95, 85, 83, 82, 79, 77, 74], [100, 99, 98, 94, 87, 81, 79, 78, 67], [99, 94, 84, 81, 78, 74, 69], [100, 99, 98, 96, 95, 86, 83, 81, 78, 76, 74], [101, 100, 94, 83, 80, 79, 75, 72], [99, 98, 97, 96, 95, 80, 78, 77, 76], [100, 99, 97, 96, 95, 94, 93, 92, 89, 85, 83, 79], [97, 96, 94, 92, 90, 80, 78], [101, 95, 94, 93, 92, 83, 79], [99, 98, 96, 93, 92, 89, 81], [101, 99, 97, 95, 91, 88, 78], [99, 96, 95, 92, 74], [100, 96, 93, 92, 91, 90, 89, 88], [99, 95, 94, 93, 92, 89, 83], [101, 96, 94, 92, 91, 90, 83], [98, 95, 94, 89, 88, 79], [94, 88, 79, 78], [97, 96, 95, 92, 89, 83], [99, 96, 91, 90, 88, 84], [100, 98, 96, 95, 92, 83], [97, 93, 92, 84, 83], [101, 94, 92, 91, 90, 88], [97, 92, 88, 78], [95, 94, 91, 90, 89], [93, 91, 90, 89], [98, 95, 92, 88], [94, 91, 90, 89], [94, 92, 91], [93, 89], [91, 90], [89, 88], [97, 88], [90, 88], [88], [89], [90], [93], [88], [102], [102], [102], [102], [102], [102], [102], [102], [102], [102], [102], [102], [102], [102], []]
letting durations = [[0], [2, 5, 6], [1, 5, 8], [1, 5, 5], [1, 5, 6], [2, 7, 10], [2, 4, 7], [3, 6, 7], [2, 3, 6], [3, 6, 8], [2, 4, 7], [1, 8, 9], [3, 4, 5], [1, 2, 7], [8, 10, 10], [3, 4, 8], [6, 6, 9], [1, 7, 8], [4, 5, 6], [8, 8, 9], [4, 6, 10], [7, 9, 10], [3, 6, 8], [2, 3, 8], [4, 7, 8], [1, 8, 8], [2, 8, 9], [2, 7, 10], [5, 9, 10], [4, 6, 7], [4, 4, 6], [3, 5, 10], [1, 2, 9], [1, 4, 5], [3, 4, 5], [8, 9, 10], [2, 8, 9], [6, 8, 8], [3, 4, 9], [1, 9, 10], [3, 4, 8], [1, 5, 8], [1, 7, 7], [5, 7, 9], [2, 7, 9], [4, 4, 6], [5, 6, 10], [1, 2, 3], [2, 3, 4], [4, 9, 10], [6, 7, 8], [3, 7, 10], [5, 7, 10], [2, 3, 4], [1, 4, 10], [6, 7, 10], [2, 3, 7], [2, 5, 8], [1, 5, 10], [3, 8, 10], [5, 8, 10], [1, 2, 4], [3, 3, 9], [3, 9, 10], [1, 8, 10], [3, 3, 4], [4, 5, 7], [1, 5, 6], [8, 8, 9], [1, 4, 7], [2, 3, 5], [2, 7, 7], [1, 3, 5], [1, 4, 8], [1, 5, 6], [3, 6, 8], [2, 8, 10], [1, 6, 7], [1, 8, 10], [2, 6, 10], [3, 5, 9], [2, 7, 10], [5, 6, 10], [2, 3, 4], [3, 9, 10], [1, 3, 8], [1, 7, 9], [3, 7, 8], [2, 4, 9], [8, 9, 10], [1, 6, 10], [3, 4, 5], [2, 4, 9], [4, 6, 10], [3, 7, 10], [1, 2, 5], [1, 6, 10], [2, 5, 6], [7, 7, 8], [5, 5, 7], [1, 3, 4], [0]]
letting resourceUsage = [[[0, 0, 0, 0]], [[4, 3, 0, 4], [3, 2, 3, 0], [3, 2, 0, 1]], [[3, 3, 4, 0], [3, 3, 2, 0], [1, 3, 2, 0]], [[1, 2, 0, 10], [1, 2, 4, 0], [1, 2, 0, 4]], [[2, 5, 0, 4], [1, 3, 3, 0], [1, 3, 2, 0]], [[4, 2, 4, 0], [4, 2, 0, 5], [4, 2, 0, 4]], [[1, 3, 0, 6], [1, 3, 3, 0], [1, 2, 2, 0]], [[3, 3, 0, 9], [2, 3, 0, 5], [2, 2, 3, 0]], [[2, 4, 0, 2], [2, 4, 0, 1], [2, 3, 0, 2]], [[1, 1, 8, 0], [1, 1, 0, 5], [1, 1, 0, 4]], [[4, 4, 9, 0], [3, 3, 0, 6], [3, 3, 6, 0]], [[4, 4, 4, 0], [4, 2, 4, 0], [4, 1, 0, 3]], [[2, 4, 4, 0], [1, 3, 0, 2], [1, 2, 1, 0]], [[3, 4, 7, 0], [2, 3, 0, 3], [2, 3, 5, 0]], [[2, 3, 4, 0], [2, 3, 3, 0], [2, 3, 0, 9]], [[3, 1, 0, 9], [2, 1, 0, 9], [2, 1, 0, 8]], [[5, 5, 10, 0], [4, 4, 0, 6], [4, 2, 0, 4]], [[4, 5, 0, 5], [3, 3, 6, 0], [3, 3, 0, 4]], [[5, 2, 8, 0], [4, 2, 8, 0], [3, 2, 0, 5]], [[4, 2, 7, 0], [4, 2, 0, 2], [4, 2, 0, 1]], [[4, 1, 0, 4], [4, 1, 0, 3], [4, 1, 3, 0]], [[4, 5, 0, 5], [3, 4, 3, 0], [1, 4, 3, 0]], [[1, 4, 0, 9], [1, 4, 0, 5], [1, 4, 6, 0]], [[4, 3, 3, 0], [4, 3, 0, 6], [4, 3, 1, 0]], [[2, 3, 0, 5], [2, 2, 6, 0], [2, 1, 6, 0]], [[4, 3, 0, 6], [3, 2, 5, 0], [2, 1, 0, 3]], [[4, 5, 8, 0], [2, 4, 0, 7], [2, 4, 8, 0]], [[3, 1, 0, 5], [2, 1, 0, 3], [2, 1, 0, 2]], [[4, 4, 8, 0], [3, 3, 5, 0], [3, 1, 0, 6]], [[4, 5, 2, 0], [4, 4, 2, 0], [2, 3, 1, 0]], [[5, 5, 7, 0], [5, 5, 0, 2], [5, 5, 0, 1]], [[3, 2, 0, 4], [3, 2, 5, 0], [3, 2, 0, 3]], [[2, 2, 7, 0], [2, 1, 4, 0], [2, 1, 0, 3]], [[5, 1, 6, 0], [4, 1, 5, 0], [4, 1, 4, 0]], [[4, 3, 0, 5], [4, 2, 0, 4], [4, 2, 0, 3]], [[5, 1, 0, 8], [3, 1, 7, 0], [2, 1, 5, 0]], [[4, 5, 3, 0], [2, 4, 3, 0], [2, 3, 0, 2]], [[3, 3, 9, 0], [3, 2, 6, 0], [3, 2, 0, 7]], [[2, 4, 0, 7], [2, 4, 0, 6], [2, 4, 0, 5]], [[2, 5, 0, 4], [2, 3, 1, 0], [2, 2, 0, 2]], [[2, 5, 1, 0], [1, 3, 1, 0], [1, 3, 0, 5]], [[2, 4, 0, 8], [2, 2, 9, 0], [2, 1, 0, 6]], [[3, 2, 0, 10], [3, 2, 0, 9], [1, 2, 2, 0]], [[2, 4, 7, 0], [1, 2, 0, 7], [1, 2, 0, 6]], [[4, 1, 0, 10], [2, 1, 0, 7], [2, 1, 0, 4]], [[2, 4, 0, 7], [2, 4, 6, 0], [2, 2, 6, 0]], [[3, 3, 5, 0], [3, 2, 0, 6], [2, 2, 4, 0]], [[3, 4, 6, 0], [3, 4, 0, 7], [1, 4, 0, 5]], [[1, 3, 0, 8], [1, 2, 0, 6], [1, 2, 0, 4]], [[5, 5, 5, 0], [4, 5, 5, 0], [3, 5, 0, 1]], [[5, 3, 8, 0], [5, 3, 7, 0], [5, 2, 4, 0]], [[3, 5, 0, 5], [3, 3, 7, 0], [1, 2, 5, 0]], [[4, 3, 0, 7], [3, 3, 0, 5], [3, 3, 4, 0]], [[3, 3, 0, 7], [2, 1, 0, 6], [1, 1, 0, 6]], [[5, 4, 0, 6], [3, 4, 0, 5], [3, 3, 0, 5]], [[4, 2, 0, 9], [4, 2, 0, 8], [4, 2, 0, 7]], [[3, 4, 0, 2], [2, 2, 4, 0], [2, 1, 0, 1]], [[3, 5, 10, 0], [2, 4, 4, 0], [2, 4, 0, 5]], [[4, 2, 3, 0], [4, 1, 0, 4], [4, 1, 3, 0]], [[2, 3, 3, 0], [1, 2, 0, 3], [1, 2, 0, 2]], [[1, 2, 7, 0], [1, 2, 0, 7], [1, 2, 6, 0]], [[3, 4, 0, 5], [2, 4, 0, 3], [1, 3, 0, 3]], [[3, 3, 0, 9], [2, 2, 1, 0], [2, 1, 1, 0]], [[4, 3, 8, 0], [4, 2, 0, 7], [4, 2, 8, 0]], [[4, 5, 0, 9], [2, 4, 7, 0], [1, 4, 0, 7]], [[2, 1, 10, 0], [1, 1, 0, 5], [1, 1, 0, 4]], [[3, 3, 7, 0], [2, 3, 5, 0], [2, 3, 0, 4]], [[4, 5, 0, 8], [3, 4, 0, 7], [3, 4, 4, 0]], [[4, 4, 0, 3], [3, 4, 4, 0], [3, 4, 3, 0]], [[3, 3, 0, 9], [2, 3, 6, 0], [1, 1, 0, 6]], [[1, 5, 0, 4], [1, 4, 0, 4], [1, 3, 4, 0]], [[3, 4, 8, 0], [2, 4, 7, 0], [2, 4, 0, 3]], [[4, 4, 4, 0], [4, 3, 2, 0], [3, 2, 0, 3]], [[3, 2, 0, 8], [2, 2, 3, 0], [2, 2, 2, 0]], [[3, 4, 9, 0], [2, 4, 0, 6], [1, 4, 0, 5]], [[3, 4, 0, 10], [3, 4, 0, 4], [1, 4, 8, 0]], [[3, 4, 0, 5], [2, 3, 0, 5], [2, 3, 0, 1]], [[4, 3, 9, 0], [3, 2, 5, 0], [1, 2, 0, 1]], [[3, 5, 0, 4], [3, 5, 0, 3], [1, 5, 3, 0]], [[4, 3, 9, 0], [4, 2, 0, 1], [3, 2, 0, 1]], [[5, 2, 8, 0], [3, 2, 8, 0], [3, 1, 0, 6]], [[3, 4, 9, 0], [2, 2, 0, 9], [2, 2, 0, 8]], [[3, 5, 7, 0], [3, 4, 0, 8], [3, 3, 2, 0]], [[4, 1, 5, 0], [4, 1, 3, 0], [4, 1, 1, 0]], [[2, 4, 0, 7], [1, 3, 4, 0], [1, 3, 0, 5]], [[5, 1, 1, 0], [4, 1, 2, 0], [4, 1, 1, 0]], [[5, 5, 7, 0], [2, 3, 3, 0], [1, 2, 3, 0]], [[3, 5, 0, 10], [3, 4, 4, 0], [3, 2, 3, 0]], [[4, 4, 0, 10], [2, 4, 0, 7], [2, 4, 3, 0]], [[5, 2, 0, 8], [5, 2, 0, 3], [5, 1, 0, 3]], [[3, 3, 0, 9], [3, 1, 0, 8], [3, 1, 0, 7]], [[4, 3, 0, 4], [4, 3, 0, 2], [4, 3, 7, 0]], [[4, 3, 6, 0], [4, 2, 0, 8], [4, 2, 0, 7]], [[3, 4, 0, 10], [3, 3, 6, 0], [3, 3, 0, 9]], [[2, 4, 2, 0], [2, 3, 1, 0], [2, 3, 0, 4]], [[3, 5, 9, 0], [2, 3, 5, 0], [2, 2, 0, 4]], [[5, 2, 0, 7], [3, 1, 0, 5], [3, 1, 4, 0]], [[4, 4, 0, 3], [4, 3, 0, 2], [3, 2, 3, 0]], [[3, 5, 5, 0], [2, 5, 0, 8], [2, 5, 0, 7]], [[3, 4, 0, 7], [3, 3, 4, 0], [3, 2, 0, 4]], [[3, 4, 0, 10], [3, 3, 0, 9], [3, 1, 0, 9]], [[0, 0, 0, 0]]]
